0 0 0 0
0 1 0 0
0 2 0 0
0 3 0 0
0 4 0 10
0 5 0 1
0 6 0 23
0 7 0 13
0 8 0 13
0 9 0 8
0 10 0 21
0 11 0 1
0 12 0 13
0 13 0 19
0 14 0 28
0 15 0 30
0 16 0 13
0 17 0 1
0 18 0 10
0 19 0 33
0 20 0 13
0 21 0 19
0 22 0 17
0 23 0 10
0 24 0 13
0 25 0 17
0 26 0 21
0 27 0 10
0 28 0 24
0 29 0 37
0 30 0 13
0 31 0 14
0 32 0 26
0 33 0 26
0 34 0 43
0 35 0 15
0 36 0 38
0 37 0 20
0 38 0 60
0 39 0 25
0 40 0 21
0 41 0 41
0 42 0 33
0 43 0 39
0 44 0 19
0 45 0 10
0 46 0 21
0 47 0 41
0 48 0 41
0 49 0 15
0 50 0 41
0 51 0 35
0 52 0 30
0 53 0 28
0 54 0 41
0 55 0 58
0 56 0 17
0 57 0 49
0 58 0 35
0 59 0 49
0 60 0 26
0 61 0 58
0 62 0 48
0 63 0 58
0 64 0 60
0 65 0 55
0 66 0 49
0 67 0 57
0 68 0 73
0 69 0 68
0 70 0 80
0 71 0 69
0 72 0 19
0 73 0 26
0 74 0 39
0 75 0 73
0 76 0 79
0 77 0 73
0 78 0 43
0 79 0 57
0 80 0 65
0 81 0 67
0 82 0 48
0 83 0 78
0 84 0 80
0 85 0 84
0 86 0 60
0 87 0 60
0 88 0 46
0 89 0 80
0 90 0 60
0 91 0 72
0 92 0 75
0 93 0 55
0 94 0 56
0 95 0 79
0 96 0 79
0 97 0 67
0 98 0 87
0 99 0 93
0 100 0 48
0 101 0 84
0 102 0 65
0 103 0 90
0 104 0 86
0 105 0 72
0 106 0 94
0 107 0 77
0 108 0 90
0 109 0 98
0 110 0 81
0 111 0 85
0 112 0 96
0 113 0 98
0 114 0 93
0 115 0 97
0 116 0 104
0 117 0 103
0 118 0 109
0 119 0 102
0 120 0 94
0 121 0 114
